array [1..2] of int: X_INTRODUCED_17_ = [1,-1];
var 1..4: X_INTRODUCED_0_;
var 1..4: X_INTRODUCED_1_;
var 1..4: X_INTRODUCED_2_;
var 1..4: X_INTRODUCED_3_;
var 1..4: X_INTRODUCED_4_;
var 1..4: X_INTRODUCED_5_;
var 1..4: X_INTRODUCED_6_;
var 1..4: X_INTRODUCED_7_;
var 1..4: X_INTRODUCED_8_;
var 1..4: X_INTRODUCED_9_;
var 1..4: X_INTRODUCED_10_;
var 1..4: X_INTRODUCED_11_;
var 1..4: X_INTRODUCED_12_;
var 1..4: X_INTRODUCED_13_;
var 1..4: X_INTRODUCED_14_;
var 1..4: X_INTRODUCED_15_;
var 1..4: X_INTRODUCED_16_;
array [1..17] of var int: x:: output_array([1..17]) = [X_INTRODUCED_0_,X_INTRODUCED_1_,X_INTRODUCED_2_,X_INTRODUCED_3_,X_INTRODUCED_4_,X_INTRODUCED_5_,X_INTRODUCED_6_,X_INTRODUCED_7_,X_INTRODUCED_8_,X_INTRODUCED_9_,X_INTRODUCED_10_,X_INTRODUCED_11_,X_INTRODUCED_12_,X_INTRODUCED_13_,X_INTRODUCED_14_,X_INTRODUCED_15_,X_INTRODUCED_16_];
constraint int_lin_ne(X_INTRODUCED_17_,[X_INTRODUCED_0_,X_INTRODUCED_1_],0);
constraint int_lin_ne(X_INTRODUCED_17_,[X_INTRODUCED_4_,X_INTRODUCED_1_],0);
constraint int_lin_ne(X_INTRODUCED_17_,[X_INTRODUCED_0_,X_INTRODUCED_2_],0);
constraint int_lin_ne(X_INTRODUCED_17_,[X_INTRODUCED_4_,X_INTRODUCED_2_],0);
constraint int_lin_ne(X_INTRODUCED_17_,[X_INTRODUCED_0_,X_INTRODUCED_3_],0);
constraint int_lin_ne(X_INTRODUCED_17_,[X_INTRODUCED_4_,X_INTRODUCED_3_],0);
constraint int_lin_ne(X_INTRODUCED_17_,[X_INTRODUCED_1_,X_INTRODUCED_2_],0);
constraint int_lin_ne(X_INTRODUCED_17_,[X_INTRODUCED_1_,X_INTRODUCED_3_],0);
constraint int_lin_ne(X_INTRODUCED_17_,[X_INTRODUCED_2_,X_INTRODUCED_3_],0);
constraint int_lin_ne(X_INTRODUCED_17_,[X_INTRODUCED_4_,X_INTRODUCED_5_],0);
constraint int_lin_ne(X_INTRODUCED_17_,[X_INTRODUCED_8_,X_INTRODUCED_5_],0);
constraint int_lin_ne(X_INTRODUCED_17_,[X_INTRODUCED_4_,X_INTRODUCED_6_],0);
constraint int_lin_ne(X_INTRODUCED_17_,[X_INTRODUCED_8_,X_INTRODUCED_6_],0);
constraint int_lin_ne(X_INTRODUCED_17_,[X_INTRODUCED_4_,X_INTRODUCED_7_],0);
constraint int_lin_ne(X_INTRODUCED_17_,[X_INTRODUCED_8_,X_INTRODUCED_7_],0);
constraint int_lin_ne(X_INTRODUCED_17_,[X_INTRODUCED_5_,X_INTRODUCED_6_],0);
constraint int_lin_ne(X_INTRODUCED_17_,[X_INTRODUCED_5_,X_INTRODUCED_7_],0);
constraint int_lin_ne(X_INTRODUCED_17_,[X_INTRODUCED_6_,X_INTRODUCED_7_],0);
constraint int_lin_ne(X_INTRODUCED_17_,[X_INTRODUCED_8_,X_INTRODUCED_9_],0);
constraint int_lin_ne(X_INTRODUCED_17_,[X_INTRODUCED_12_,X_INTRODUCED_9_],0);
constraint int_lin_ne(X_INTRODUCED_17_,[X_INTRODUCED_8_,X_INTRODUCED_10_],0);
constraint int_lin_ne(X_INTRODUCED_17_,[X_INTRODUCED_12_,X_INTRODUCED_10_],0);
constraint int_lin_ne(X_INTRODUCED_17_,[X_INTRODUCED_8_,X_INTRODUCED_11_],0);
constraint int_lin_ne(X_INTRODUCED_17_,[X_INTRODUCED_12_,X_INTRODUCED_11_],0);
constraint int_lin_ne(X_INTRODUCED_17_,[X_INTRODUCED_9_,X_INTRODUCED_10_],0);
constraint int_lin_ne(X_INTRODUCED_17_,[X_INTRODUCED_9_,X_INTRODUCED_11_],0);
constraint int_lin_ne(X_INTRODUCED_17_,[X_INTRODUCED_10_,X_INTRODUCED_11_],0);
constraint int_lin_ne(X_INTRODUCED_17_,[X_INTRODUCED_12_,X_INTRODUCED_13_],0);
constraint int_lin_ne(X_INTRODUCED_17_,[X_INTRODUCED_16_,X_INTRODUCED_13_],0);
constraint int_lin_ne(X_INTRODUCED_17_,[X_INTRODUCED_12_,X_INTRODUCED_14_],0);
constraint int_lin_ne(X_INTRODUCED_17_,[X_INTRODUCED_16_,X_INTRODUCED_14_],0);
constraint int_lin_ne(X_INTRODUCED_17_,[X_INTRODUCED_12_,X_INTRODUCED_15_],0);
constraint int_lin_ne(X_INTRODUCED_17_,[X_INTRODUCED_16_,X_INTRODUCED_15_],0);
constraint int_lin_ne(X_INTRODUCED_17_,[X_INTRODUCED_13_,X_INTRODUCED_14_],0);
constraint int_lin_ne(X_INTRODUCED_17_,[X_INTRODUCED_13_,X_INTRODUCED_15_],0);
constraint int_lin_ne(X_INTRODUCED_17_,[X_INTRODUCED_14_,X_INTRODUCED_15_],0);
constraint int_lin_ne(X_INTRODUCED_17_,[X_INTRODUCED_0_,X_INTRODUCED_16_],0);
solve :: int_search(x,first_fail,indomain_min,complete) satisfy;
